4 10 50 1 2
0 200
 1 35.00 35.00 0.00 0.00 0.00 0 0 0 230
 2 41.00 49.00 10.00 10.00 5.00 1 1 1 0 204
 3 35.00 17.00 10.00 7.00 2.00 1 1 1 0 202
 4 55.00 45.00 10.00 13.00 16.00 1 1 1 0 197
 5 55.00 20.00 10.00 19.00 1.00 1 1 1 139 169
 6 15.00 30.00 10.00 26.00 7.00 1 1 1 0 199
 7 25.00 30.00 10.00 3.00 9.00 1 1 1 89 119
 8 20.00 50.00 10.00 5.00 7.00 1 1 1 0 198
 9 10.00 43.00 10.00 9.00 29.00 1 1 1 85 115
 10 55.00 60.00 10.00 16.00 16.00 1 1 1 87 117
 11 30.00 60.00 10.00 16.00 5.00 1 1 1 114 144
 12 20.00 65.00 10.00 12.00 17.00 1 1 1 57 87
 13 50.00 35.00 10.00 19.00 9.00 1 1 1 0 205
 14 30.00 25.00 10.00 23.00 19.00 1 1 1 149 179
 15 15.00 10.00 10.00 20.00 6.00 1 1 1 0 187
 16 30.00 5.00 10.00 8.00 17.00 1 1 1 51 81
 17 10.00 20.00 10.00 19.00 5.00 1 1 1 0 190
 18 5.00 30.00 10.00 2.00 9.00 1 1 1 147 177
 19 20.00 40.00 10.00 12.00 16.00 1 1 1 0 204
 20 15.00 60.00 10.00 17.00 11.00 1 1 1 0 187
 21 45.00 65.00 10.00 9.00 3.00 1 1 1 0 188
 22 45.00 20.00 10.00 11.00 8.00 1 1 1 0 201
 23 45.00 10.00 10.00 18.00 16.00 1 1 1 87 117
 24 55.00 5.00 10.00 29.00 18.00 1 1 1 58 88
 25 65.00 35.00 10.00 3.00 16.00 1 1 1 0 190
 26 65.00 20.00 10.00 6.00 27.00 1 1 1 156 186
 27 45.00 30.00 10.00 17.00 23.00 1 1 1 0 208
 28 35.00 40.00 10.00 16.00 19.00 1 1 1 27 57
 29 41.00 37.00 10.00 16.00 9.00 1 1 1 0 213
 30 64.00 42.00 10.00 9.00 8.00 1 1 1 0 190
 31 40.00 60.00 10.00 21.00 36.00 1 1 1 61 91
 32 31.00 52.00 10.00 27.00 18.00 1 1 1 0 202
 33 35.00 69.00 10.00 23.00 31.00 1 1 1 0 186
 34 53.00 52.00 10.00 11.00 3.00 1 1 1 27 57
 35 65.00 55.00 10.00 14.00 19.00 1 1 1 0 183
 36 63.00 65.00 10.00 8.00 26.00 1 1 1 133 163
 37 2.00 60.00 10.00 5.00 11.00 1 1 1 41 71
 38 20.00 20.00 10.00 8.00 5.00 1 1 1 0 198
 39 5.00 5.00 10.00 16.00 14.00 1 1 1 73 103
 40 60.00 12.00 10.00 31.00 30.00 1 1 1 34 64
 41 40.00 25.00 10.00 9.00 12.00 1 1 1 75 105
 42 42.00 7.00 10.00 5.00 12.00 1 1 1 87 117
 43 24.00 12.00 10.00 5.00 23.00 1 1 1 25 55
 44 23.00 3.00 10.00 7.00 21.00 1 1 1 0 185
 45 11.00 14.00 10.00 18.00 20.00 1 1 1 59 89
 46 6.00 38.00 10.00 16.00 10.00 1 1 1 29 59
 47 2.00 48.00 10.00 1.00 13.00 1 1 1 0 184
 48 8.00 56.00 10.00 27.00 27.00 1 1 1 0 185
 49 13.00 52.00 10.00 36.00 16.00 1 1 1 0 192
 50 6.00 68.00 10.00 30.00 13.00 1 1 1 98 128
 51 47.00 47.00 10.00 13.00 8.00 1 1 1 0 203
